data/processed_heuristic-threshold/instances/1/8/ds_1006_courier_1656/pairwise.tsp
NAME: ds_1006_courier_1656
TYPE: TSP
COMMENT: nil
DIMENSION: 9
EDGE_WEIGHT_TYPE: EXPLICIT
EDGE_WEIGHT_FORMAT: FULL_MATRIX
EDGE_WEIGHT_SECTION
9999 1365 5444 7206 4077 42 2691 4055 3453 
1365 9999 4597 6208 3767 1336 2479 3659 2837 
5444 4597 9999 8637 7977 5402 6918 7791 6853 
7206 6208 8637 9999 4090 7201 4964 3894 3928 
4077 3767 7977 4090 9999 4093 1387 263 1150 
42 1336 5402 7201 4093 9999 2706 4068 3458 
2691 2479 6918 4964 1387 2706 9999 1373 1055 
4055 3659 7791 3894 263 4068 1373 9999 941 
3453 2837 6853 3928 1150 3458 1055 941 9999 
