data/processed_heuristic-threshold/instances/1/8/ds_1006_courier_1656/pairwise.sol
9
0 5 1 2 3 4 7 8 6 
